p edge 75 832
e 1 4
e 1 6
e 1 8
e 1 12
e 1 13
e 1 15
e 1 16
e 1 19
e 1 23
e 1 25
e 1 26
e 1 28
e 1 30
e 1 31
e 1 36
e 1 41
e 1 52
e 1 53
e 1 56
e 1 64
e 1 73
e 2 5
e 2 9
e 2 16
e 2 17
e 2 20
e 2 21
e 2 27
e 2 31
e 2 37
e 2 38
e 2 39
e 2 43
e 2 44
e 2 45
e 2 48
e 2 51
e 2 53
e 2 55
e 2 56
e 2 58
e 2 59
e 2 61
e 2 64
e 2 69
e 2 72
e 2 73
e 2 74
e 2 75
e 3 10
e 3 13
e 3 14
e 3 21
e 3 24
e 3 25
e 3 29
e 3 34
e 3 35
e 3 36
e 3 40
e 3 41
e 3 43
e 3 46
e 3 48
e 3 49
e 3 53
e 3 58
e 3 63
e 3 65
e 3 67
e 3 71
e 3 73
e 3 75
e 4 6
e 4 7
e 4 10
e 4 17
e 4 27
e 4 34
e 4 35
e 4 39
e 4 40
e 4 41
e 4 43
e 4 54
e 4 55
e 4 56
e 4 58
e 4 61
e 4 65
e 4 68
e 4 69
e 4 73
e 4 74
e 5 12
e 5 17
e 5 21
e 5 29
e 5 31
e 5 34
e 5 38
e 5 39
e 5 40
e 5 47
e 5 48
e 5 59
e 5 60
e 5 69
e 5 74
e 5 75
e 6 11
e 6 12
e 6 15
e 6 19
e 6 26
e 6 28
e 6 32
e 6 34
e 6 35
e 6 36
e 6 40
e 6 41
e 6 44
e 6 46
e 6 47
e 6 50
e 6 51
e 6 53
e 6 54
e 6 56
e 6 63
e 6 64
e 6 67
e 6 70
e 6 74
e 7 11
e 7 13
e 7 16
e 7 18
e 7 21
e 7 33
e 7 34
e 7 40
e 7 44
e 7 56
e 7 62
e 7 64
e 7 65
e 7 73
e 7 74
e 7 75
e 8 22
e 8 23
e 8 24
e 8 25
e 8 27
e 8 28
e 8 29
e 8 32
e 8 42
e 8 58
e 8 60
e 8 64
e 8 65
e 8 68
e 8 69
e 8 74
e 9 13
e 9 15
e 9 27
e 9 28
e 9 34
e 9 40
e 9 41
e 9 53
e 9 54
e 9 60
e 9 73
e 10 11
e 10 12
e 10 13
e 10 15
e 10 18
e 10 19
e 10 27
e 10 34
e 10 35
e 10 36
e 10 37
e 10 43
e 10 45
e 10 47
e 10 49
e 10 51
e 10 52
e 10 56
e 10 57
e 10 58
e 10 61
e 10 68
e 10 72
e 10 73
e 10 75
e 11 12
e 11 16
e 11 19
e 11 22
e 11 24
e 11 25
e 11 27
e 11 34
e 11 38
e 11 43
e 11 48
e 11 49
e 11 53
e 11 54
e 11 55
e 11 58
e 11 59
e 11 60
e 11 64
e 11 68
e 11 69
e 11 70
e 11 72
e 11 73
e 11 75
e 12 19
e 12 25
e 12 26
e 12 28
e 12 30
e 12 36
e 12 39
e 12 41
e 12 43
e 12 46
e 12 47
e 12 52
e 12 53
e 12 59
e 12 61
e 12 62
e 13 17
e 13 20
e 13 22
e 13 23
e 13 25
e 13 26
e 13 31
e 13 34
e 13 36
e 13 37
e 13 38
e 13 40
e 13 46
e 13 47
e 13 58
e 13 59
e 13 62
e 13 63
e 13 68
e 13 71
e 13 75
e 14 15
e 14 16
e 14 17
e 14 25
e 14 28
e 14 32
e 14 34
e 14 38
e 14 39
e 14 40
e 14 49
e 14 50
e 14 53
e 14 56
e 14 61
e 14 63
e 14 64
e 14 65
e 14 67
e 14 69
e 14 70
e 15 18
e 15 19
e 15 21
e 15 25
e 15 30
e 15 34
e 15 39
e 15 40
e 15 43
e 15 48
e 15 49
e 15 53
e 15 57
e 15 61
e 15 63
e 15 69
e 15 72
e 15 73
e 15 74
e 16 17
e 16 18
e 16 30
e 16 33
e 16 43
e 16 48
e 16 50
e 16 56
e 16 65
e 16 70
e 16 75
e 17 23
e 17 27
e 17 28
e 17 29
e 17 35
e 17 38
e 17 47
e 17 49
e 17 53
e 17 57
e 17 59
e 17 62
e 17 63
e 17 65
e 17 66
e 17 69
e 17 71
e 17 73
e 18 19
e 18 20
e 18 21
e 18 27
e 18 30
e 18 31
e 18 34
e 18 37
e 18 49
e 18 51
e 18 58
e 18 62
e 18 67
e 18 73
e 18 74
e 19 22
e 19 23
e 19 27
e 19 28
e 19 33
e 19 42
e 19 45
e 19 49
e 19 54
e 19 57
e 19 64
e 19 70
e 19 71
e 19 75
e 20 26
e 20 27
e 20 28
e 20 30
e 20 34
e 20 36
e 20 39
e 20 43
e 20 45
e 20 50
e 20 64
e 20 66
e 20 75
e 21 22
e 21 25
e 21 26
e 21 28
e 21 29
e 21 30
e 21 38
e 21 39
e 21 41
e 21 42
e 21 43
e 21 48
e 21 50
e 21 55
e 21 58
e 21 60
e 21 62
e 21 65
e 21 70
e 21 73
e 22 31
e 22 34
e 22 36
e 22 38
e 22 42
e 22 44
e 22 45
e 22 47
e 22 48
e 22 51
e 22 57
e 22 62
e 22 65
e 22 67
e 22 72
e 23 26
e 23 27
e 23 28
e 23 29
e 23 30
e 23 37
e 23 42
e 23 43
e 23 45
e 23 46
e 23 49
e 23 50
e 23 57
e 23 58
e 23 68
e 23 69
e 23 70
e 23 71
e 24 28
e 24 29
e 24 30
e 24 32
e 24 34
e 24 35
e 24 39
e 24 45
e 24 50
e 24 52
e 24 53
e 24 54
e 24 57
e 24 61
e 24 65
e 24 73
e 25 29
e 25 31
e 25 33
e 25 40
e 25 44
e 25 48
e 25 53
e 25 54
e 25 59
e 25 63
e 25 65
e 25 66
e 26 30
e 26 39
e 26 40
e 26 41
e 26 46
e 26 48
e 26 50
e 26 51
e 26 62
e 26 63
e 26 68
e 26 71
e 26 75
e 27 31
e 27 34
e 27 40
e 27 47
e 27 50
e 27 51
e 27 52
e 27 57
e 27 62
e 27 65
e 27 70
e 27 71
e 27 72
e 27 73
e 27 74
e 28 29
e 28 30
e 28 32
e 28 34
e 28 35
e 28 38
e 28 39
e 28 42
e 28 43
e 28 49
e 28 50
e 28 53
e 28 56
e 28 57
e 28 58
e 28 59
e 28 61
e 28 64
e 28 68
e 28 69
e 28 73
e 29 30
e 29 32
e 29 33
e 29 34
e 29 38
e 29 40
e 29 43
e 29 46
e 29 52
e 29 55
e 29 56
e 29 59
e 29 72
e 29 73
e 30 32
e 30 34
e 30 39
e 30 40
e 30 43
e 30 44
e 30 45
e 30 50
e 30 51
e 30 52
e 30 54
e 30 55
e 30 57
e 30 59
e 30 63
e 30 65
e 31 38
e 31 43
e 31 45
e 31 48
e 31 50
e 31 58
e 31 60
e 31 62
e 31 66
e 31 67
e 31 68
e 31 74
e 32 38
e 32 41
e 32 43
e 32 44
e 32 46
e 32 47
e 32 55
e 32 56
e 32 64
e 33 35
e 33 36
e 33 37
e 33 39
e 33 41
e 33 47
e 33 56
e 33 58
e 33 60
e 33 61
e 33 63
e 33 66
e 33 69
e 33 71
e 33 73
e 33 74
e 33 75
e 34 36
e 34 38
e 34 42
e 34 50
e 34 57
e 34 59
e 34 60
e 34 61
e 34 71
e 34 72
e 34 75
e 35 37
e 35 45
e 35 46
e 35 47
e 35 48
e 35 49
e 35 50
e 35 56
e 35 59
e 35 60
e 35 70
e 35 71
e 35 72
e 35 75
e 36 41
e 36 44
e 36 45
e 36 49
e 36 64
e 36 67
e 36 68
e 36 70
e 36 73
e 37 40
e 37 47
e 37 52
e 37 55
e 37 65
e 37 69
e 37 70
e 38 43
e 38 46
e 38 48
e 38 51
e 38 52
e 38 60
e 38 65
e 38 66
e 38 74
e 38 75
e 39 42
e 39 48
e 39 51
e 39 53
e 39 55
e 39 62
e 39 66
e 39 69
e 39 71
e 39 74
e 40 41
e 40 42
e 40 45
e 40 51
e 40 62
e 40 70
e 40 71
e 40 75
e 41 42
e 41 43
e 41 46
e 41 48
e 41 49
e 41 57
e 41 58
e 41 65
e 41 68
e 42 43
e 42 46
e 42 49
e 42 50
e 42 53
e 42 57
e 42 58
e 42 63
e 42 65
e 42 67
e 42 70
e 42 73
e 43 44
e 43 45
e 43 47
e 43 48
e 43 51
e 43 55
e 43 66
e 43 69
e 43 73
e 43 75
e 44 45
e 44 48
e 44 57
e 44 64
e 44 66
e 44 68
e 44 69
e 44 70
e 45 46
e 45 53
e 45 54
e 45 55
e 45 56
e 45 59
e 45 63
e 45 68
e 45 71
e 45 72
e 45 73
e 45 75
e 46 47
e 46 55
e 46 59
e 46 64
e 46 65
e 46 67
e 46 68
e 46 70
e 47 48
e 47 50
e 47 52
e 47 53
e 47 61
e 47 64
e 47 65
e 47 67
e 47 70
e 47 71
e 47 72
e 47 75
e 48 52
e 48 61
e 48 63
e 48 65
e 48 67
e 48 68
e 49 50
e 49 52
e 49 54
e 49 62
e 49 65
e 49 67
e 49 72
e 49 74
e 50 51
e 50 53
e 50 56
e 50 62
e 50 67
e 50 68
e 50 69
e 50 70
e 50 71
e 50 74
e 51 52
e 51 58
e 51 59
e 51 61
e 51 63
e 51 67
e 51 72
e 51 75
e 52 54
e 52 56
e 52 57
e 52 62
e 52 66
e 52 67
e 52 74
e 53 56
e 53 57
e 53 65
e 53 66
e 53 71
e 53 72
e 53 75
e 54 64
e 54 71
e 54 72
e 55 56
e 55 58
e 55 64
e 55 68
e 55 69
e 55 72
e 56 60
e 56 62
e 56 66
e 56 75
e 57 63
e 57 64
e 57 65
e 57 69
e 57 71
e 57 72
e 57 74
e 58 59
e 58 66
e 58 68
e 58 70
e 58 71
e 58 72
e 59 60
e 59 62
e 59 64
e 59 66
e 59 67
e 59 68
e 59 69
e 59 70
e 59 73
e 59 74
e 60 62
e 60 63
e 60 68
e 60 71
e 60 72
e 60 75
e 61 64
e 61 66
e 61 67
e 61 71
e 62 66
e 62 68
e 62 70
e 62 71
e 63 64
e 63 70
e 64 66
e 64 72
e 64 73
e 64 74
e 65 69
e 65 72
e 65 73
e 65 75
e 66 74
e 66 75
e 67 70
e 67 71
e 68 72
e 68 74
e 69 72
e 70 71
e 70 75
e 72 73
e 72 74
e 74 75
